language ESSENCE' 1.0

letting fixed be 
[
    [0,9,2,0,0,0,3,7,6],
    [0,1,0,0,3,0,5,0,0],
    [3,0,0,0,0,0,1,9,0],
    [9,3,0,8,5,0,7,0,1],
    [0,0,0,3,0,4,0,0,0],
    [2,0,0,0,9,7,0,0,3],
    [6,8,9,0,0,3,4,1,0],
    [5,2,3,0,4,0,0,6,0],
    [1,4,7,0,0,0,2,3,0]
]